c FILE /home/rafael/Documents/HappySet/MIHS/inputs/happygen/output/graph_scale_free_k10_p0.3_v50_20241127_082515.txt
c SOURCE This is a scale-free graph formed for the happy graph colouring problem.
c DESCRIPTION It was generated using the problem generator of Rhyd Lewis
c
c GRAPH STATS
c Seed                             = -532143159
c Number of Nodes                  = 50
c Number of colours k              = 10
c Number of pre-assignments        = 15
c Number of links per new node     = 5
c Density                          = 0.191837
c 
c The degrees of nodes 1 to 50, respectively, are as follows 
c [27, 26, 23, 19, 18, 17, 17, 16, 16, 14, 12, 11, 11, 10, 9, 9, 9, 9, 9, 8, 8, 8, 8, 7, 7, 7, 
c  7, 7, 7, 6, 6, 6, 6, 6, 6, 6, 6, 6, 5, 5, 5, 5, 5, 5, 5, 5, 5, 5, 5, 5] 
c  
p edge 50 235 10
e 1 2
e 1 3
e 1 4
e 1 5
e 1 6
e 1 7
e 1 8
e 1 9
e 1 10
e 1 11
e 1 12
e 1 13
e 1 16
e 1 18
e 1 19
e 1 23
e 1 24
e 1 26
e 1 27
e 1 28
e 1 31
e 1 35
e 1 38
e 1 39
e 1 41
e 1 44
e 1 49
e 2 3
e 2 4
e 2 5
e 2 7
e 2 8
e 2 9
e 2 10
e 2 11
e 2 12
e 2 13
e 2 14
e 2 15
e 2 16
e 2 17
e 2 18
e 2 20
e 2 25
e 2 30
e 2 31
e 2 34
e 2 35
e 2 36
e 2 40
e 2 46
e 2 48
e 3 4
e 3 8
e 3 9
e 3 10
e 3 12
e 3 15
e 3 17
e 3 21
e 3 24
e 3 26
e 3 27
e 3 29
e 3 35
e 3 37
e 3 39
e 3 40
e 3 41
e 3 45
e 3 46
e 3 48
e 3 49
e 4 5
e 4 6
e 4 7
e 4 8
e 4 10
e 4 15
e 4 17
e 4 21
e 4 24
e 4 31
e 4 32
e 4 33
e 4 34
e 4 37
e 4 40
e 4 50
e 5 8
e 5 10
e 5 14
e 5 16
e 5 17
e 5 23
e 5 25
e 5 26
e 5 30
e 5 31
e 5 32
e 5 35
e 5 47
e 5 48
e 5 50
e 6 9
e 6 10
e 6 11
e 6 12
e 6 16
e 6 20
e 6 24
e 6 27
e 6 28
e 6 30
e 6 33
e 6 34
e 6 36
e 6 37
e 6 42
e 7 8
e 7 12
e 7 13
e 7 15
e 7 20
e 7 21
e 7 22
e 7 25
e 7 30
e 7 34
e 7 41
e 7 44
e 7 45
e 7 47
e 8 9
e 8 10
e 8 12
e 8 13
e 8 20
e 8 21
e 8 30
e 8 32
e 8 36
e 8 49
e 9 10
e 9 11
e 9 13
e 9 17
e 9 18
e 9 19
e 9 20
e 9 25
e 9 31
e 9 39
e 9 42
e 10 11
e 10 12
e 10 14
e 10 33
e 10 38
e 10 44
e 11 18
e 11 22
e 11 28
e 11 32
e 11 33
e 11 38
e 11 39
e 12 15
e 12 24
e 12 29
e 12 49
e 13 14
e 13 19
e 13 27
e 13 37
e 13 46
e 13 48
e 14 21
e 14 22
e 14 25
e 14 26
e 14 32
e 14 38
e 15 16
e 15 18
e 15 26
e 15 34
e 16 23
e 16 29
e 16 45
e 16 50
e 17 22
e 17 23
e 17 40
e 17 50
e 18 19
e 18 22
e 18 23
e 18 36
e 19 28
e 19 29
e 19 40
e 19 42
e 19 46
e 20 33
e 20 41
e 20 47
e 21 37
e 21 43
e 21 47
e 22 29
e 22 44
e 22 47
e 23 42
e 23 43
e 23 48
e 24 35
e 24 49
e 25 30
e 25 39
e 26 36
e 26 45
e 27 28
e 27 32
e 27 45
e 28 31
e 28 41
e 29 38
e 29 46
e 33 50
e 34 43
e 35 44
e 36 42
e 37 43
e 38 43
n 5 4
n 6 1
n 13 2
n 18 6
n 20 1
n 21 3
n 29 9
n 31 4
n 33 1
n 39 7
n 42 1
n 43 3
n 44 8
n 45 10
n 49 5
